# Solution for model risk
# Objective value = -109847
y#0#0 0
y#1#0 1
y#2#0 1
y#3#0 0
x$AAPL#1#_1#0@a 0
x$AAPL#2#_1#0@1e 0
x$AAPL#3#_1#0@32 0
x$NVDA#1#_1#0@46 0
x$NVDA#2#_1#0@5a 0
x$NVDA#3#_1#0@6e 0
x$MSFT#1#_1#0@82 0
x$MSFT#2#_1#0@96 0
x$MSFT#3#_1#0@aa 0
x$GOOG#1#_1#0@be 0
x$GOOG#2#_1#0@d2 0
x$GOOG#3#_1#0@e6 0
x$GOOGL#1#_1#@fa 0
x$GOOGL#2#_1@10e 0
x$GOOGL#3#_1@122 0
x$AMZN#1#_1#@136 0
x$AMZN#2#_1#@14a 0
x$AMZN#3#_1#@15e 0
x$META#1#_1#@172 0
x$META#2#_1#@186 0
x$META#3#_1#@19a 0
x$TSLA#1#_1#@1ae 0
x$TSLA#2#_1#@1c2 0
x$TSLA#3#_1#@1d6 0
x$AVGO#1#_1#@1ea 0
x$AVGO#2#_1#@1fe 0
x$AVGO#3#_1#@212 0
x$WMT#1#_1#0@226 0
x$WMT#2#_1#0@23a 0
x$WMT#3#_1#0@24e 0
y#0#1 0
y#1#1 0
y#2#1 1
y#3#1 1
x$AAPL#1#_1#1@b 0
x$AAPL#2#_1#1@1f 0
x$AAPL#3#_1#1@33 0
x$NVDA#1#_1#1@47 0
x$NVDA#2#_1#1@5b 0
x$NVDA#3#_1#1@6f 0
x$MSFT#1#_1#1@83 0
x$MSFT#2#_1#1@97 0
x$MSFT#3#_1#1@ab 0
x$GOOG#1#_1#1@bf 0
x$GOOG#2#_1#1@d3 0
x$GOOG#3#_1#1@e7 0
x$GOOGL#1#_1#@fb 0
x$GOOGL#2#_1@10f 0
x$GOOGL#3#_1@123 0
x$AMZN#1#_1#@137 0
x$AMZN#2#_1#@14b 0
x$AMZN#3#_1#@15f 0
x$META#1#_1#@173 0
x$META#2#_1#@187 0
x$META#3#_1#@19b 0
x$TSLA#1#_1#@1af 1
x$TSLA#2#_1#@1c3 1
x$TSLA#3#_1#@1d7 1
x$AVGO#1#_1#@1eb 0
x$AVGO#2#_1#@1ff 0
x$AVGO#3#_1#@213 0
x$WMT#1#_1#1@227 0
x$WMT#2#_1#1@23b 0
x$WMT#3#_1#1@24f 0
y#0#2 0
y#1#2 1
y#2#2 1
y#3#2 0
x$AAPL#1#_1#2@c 0
x$AAPL#2#_1#2@20 0
x$AAPL#3#_1#2@34 0
x$NVDA#1#_1#2@48 0
x$NVDA#2#_1#2@5c 0
x$NVDA#3#_1#2@70 0
x$MSFT#1#_1#2@84 0
x$MSFT#2#_1#2@98 0
x$MSFT#3#_1#2@ac 0
x$GOOG#1#_1#2@c0 0
x$GOOG#2#_1#2@d4 0
x$GOOG#3#_1#2@e8 0
x$GOOGL#1#_1#@fc 0
x$GOOGL#2#_1@110 0
x$GOOGL#3#_1@124 0
x$AMZN#1#_1#@138 0
x$AMZN#2#_1#@14c 0
x$AMZN#3#_1#@160 0
x$META#1#_1#@174 0
x$META#2#_1#@188 0
x$META#3#_1#@19c 0
x$TSLA#1#_1#@1b0 0
x$TSLA#2#_1#@1c4 0
x$TSLA#3#_1#@1d8 0
x$AVGO#1#_1#@1ec 0
x$AVGO#2#_1#@200 0
x$AVGO#3#_1#@214 0
x$WMT#1#_1#2@228 0
x$WMT#2#_1#2@23c 0
x$WMT#3#_1#2@250 0
y#0#3 0
y#1#3 1
y#2#3 1
y#3#3 1
x$AAPL#1#_1#3@d 0
x$AAPL#2#_1#3@21 0
x$AAPL#3#_1#3@35 0
x$NVDA#1#_1#3@49 0
x$NVDA#2#_1#3@5d 1
x$NVDA#3#_1#3@71 0
x$MSFT#1#_1#3@85 0
x$MSFT#2#_1#3@99 0
x$MSFT#3#_1#3@ad 0
x$GOOG#1#_1#3@c1 0
x$GOOG#2#_1#3@d5 0
x$GOOG#3#_1#3@e9 0
x$GOOGL#1#_1#@fd 0
x$GOOGL#2#_1@111 0
x$GOOGL#3#_1@125 0
x$AMZN#1#_1#@139 0
x$AMZN#2#_1#@14d 0
x$AMZN#3#_1#@161 0
x$META#1#_1#@175 0
x$META#2#_1#@189 0
x$META#3#_1#@19d 0
x$TSLA#1#_1#@1b1 0
x$TSLA#2#_1#@1c5 0
x$TSLA#3#_1#@1d9 0
x$AVGO#1#_1#@1ed 1
x$AVGO#2#_1#@201 1
x$AVGO#3#_1#@215 1
x$WMT#1#_1#3@229 0
x$WMT#2#_1#3@23d 0
x$WMT#3#_1#3@251 0
y#0#4 0
y#1#4 0
y#2#4 1
y#3#4 1
x$AAPL#1#_1#4@e 0
x$AAPL#2#_1#4@22 0
x$AAPL#3#_1#4@36 0
x$NVDA#1#_1#4@4a 0
x$NVDA#2#_1#4@5e 0
x$NVDA#3#_1#4@72 0
x$MSFT#1#_1#4@86 0
x$MSFT#2#_1#4@9a 0
x$MSFT#3#_1#4@ae 0
x$GOOG#1#_1#4@c2 0
x$GOOG#2#_1#4@d6 0
x$GOOG#3#_1#4@ea 0
x$GOOGL#1#_1#@fe 0
x$GOOGL#2#_1@112 0
x$GOOGL#3#_1@126 0
x$AMZN#1#_1#@13a 0
x$AMZN#2#_1#@14e 0
x$AMZN#3#_1#@162 0
x$META#1#_1#@176 0
x$META#2#_1#@18a 0
x$META#3#_1#@19e 0
x$TSLA#1#_1#@1b2 1
x$TSLA#2#_1#@1c6 1
x$TSLA#3#_1#@1da 1
x$AVGO#1#_1#@1ee 0
x$AVGO#2#_1#@202 0
x$AVGO#3#_1#@216 0
x$WMT#1#_1#4@22a 0
x$WMT#2#_1#4@23e 0
x$WMT#3#_1#4@252 0
y#0#5 0
y#1#5 0
y#2#5 0
y#3#5 1
x$AAPL#1#_1#5@f 0
x$AAPL#2#_1#5@23 0
x$AAPL#3#_1#5@37 0
x$NVDA#1#_1#5@4b 0
x$NVDA#2#_1#5@5f 0
x$NVDA#3#_1#5@73 0
x$MSFT#1#_1#5@87 0
x$MSFT#2#_1#5@9b 0
x$MSFT#3#_1#5@af 0
x$GOOG#1#_1#5@c3 0
x$GOOG#2#_1#5@d7 0
x$GOOG#3#_1#5@eb 0
x$GOOGL#1#_1#@ff 0
x$GOOGL#2#_1@113 0
x$GOOGL#3#_1@127 0
x$AMZN#1#_1#@13b 0
x$AMZN#2#_1#@14f 0
x$AMZN#3#_1#@163 0
x$META#1#_1#@177 1
x$META#2#_1#@18b 0
x$META#3#_1#@19f 0
x$TSLA#1#_1#@1b3 0
x$TSLA#2#_1#@1c7 0
x$TSLA#3#_1#@1db 0
x$AVGO#1#_1#@1ef 0
x$AVGO#2#_1#@203 0
x$AVGO#3#_1#@217 0
x$WMT#1#_1#5@22b 0
x$WMT#2#_1#5@23f 0
x$WMT#3#_1#5@253 0
y#0#6 0
y#1#6 0
y#2#6 0
y#3#6 1
x$AAPL#1#_1#6@10 0
x$AAPL#2#_1#6@24 0
x$AAPL#3#_1#6@38 0
x$NVDA#1#_1#6@4c 0
x$NVDA#2#_1#6@60 0
x$NVDA#3#_1#6@74 1
x$MSFT#1#_1#6@88 0
x$MSFT#2#_1#6@9c 0
x$MSFT#3#_1#6@b0 0
x$GOOG#1#_1#6@c4 0
x$GOOG#2#_1#6@d8 0
x$GOOG#3#_1#6@ec 0
x$GOOGL#1#_1@100 0
x$GOOGL#2#_1@114 0
x$GOOGL#3#_1@128 0
x$AMZN#1#_1#@13c 0
x$AMZN#2#_1#@150 0
x$AMZN#3#_1#@164 0
x$META#1#_1#@178 0
x$META#2#_1#@18c 0
x$META#3#_1#@1a0 0
x$TSLA#1#_1#@1b4 0
x$TSLA#2#_1#@1c8 0
x$TSLA#3#_1#@1dc 0
x$AVGO#1#_1#@1f0 0
x$AVGO#2#_1#@204 0
x$AVGO#3#_1#@218 0
x$WMT#1#_1#6@22c 0
x$WMT#2#_1#6@240 0
x$WMT#3#_1#6@254 0
y#0#7 0
y#1#7 0
y#2#7 1
y#3#7 1
x$AAPL#1#_1#7@11 0
x$AAPL#2#_1#7@25 0
x$AAPL#3#_1#7@39 0
x$NVDA#1#_1#7@4d 0
x$NVDA#2#_1#7@61 0
x$NVDA#3#_1#7@75 0
x$MSFT#1#_1#7@89 0
x$MSFT#2#_1#7@9d 0
x$MSFT#3#_1#7@b1 0
x$GOOG#1#_1#7@c5 0
x$GOOG#2#_1#7@d9 0
x$GOOG#3#_1#7@ed 0
x$GOOGL#1#_1@101 0
x$GOOGL#2#_1@115 0
x$GOOGL#3#_1@129 0
x$AMZN#1#_1#@13d 0
x$AMZN#2#_1#@151 0
x$AMZN#3#_1#@165 0
x$META#1#_1#@179 0
x$META#2#_1#@18d 0
x$META#3#_1#@1a1 0
x$TSLA#1#_1#@1b5 1
x$TSLA#2#_1#@1c9 1
x$TSLA#3#_1#@1dd 1
x$AVGO#1#_1#@1f1 0
x$AVGO#2#_1#@205 0
x$AVGO#3#_1#@219 0
x$WMT#1#_1#7@22d 0
x$WMT#2#_1#7@241 0
x$WMT#3#_1#7@255 0
y#0#8 0
y#1#8 1
y#2#8 1
y#3#8 0
x$AAPL#1#_1#8@12 0
x$AAPL#2#_1#8@26 0
x$AAPL#3#_1#8@3a 0
x$NVDA#1#_1#8@4e 0
x$NVDA#2#_1#8@62 0
x$NVDA#3#_1#8@76 0
x$MSFT#1#_1#8@8a 0
x$MSFT#2#_1#8@9e 0
x$MSFT#3#_1#8@b2 0
x$GOOG#1#_1#8@c6 0
x$GOOG#2#_1#8@da 0
x$GOOG#3#_1#8@ee 0
x$GOOGL#1#_1@102 0
x$GOOGL#2#_1@116 0
x$GOOGL#3#_1@12a 0
x$AMZN#1#_1#@13e 0
x$AMZN#2#_1#@152 0
x$AMZN#3#_1#@166 0
x$META#1#_1#@17a 0
x$META#2#_1#@18e 0
x$META#3#_1#@1a2 0
x$TSLA#1#_1#@1b6 0
x$TSLA#2#_1#@1ca 0
x$TSLA#3#_1#@1de 0
x$AVGO#1#_1#@1f2 0
x$AVGO#2#_1#@206 0
x$AVGO#3#_1#@21a 0
x$WMT#1#_1#8@22e 0
x$WMT#2#_1#8@242 0
x$WMT#3#_1#8@256 0
y#0#9 0
y#1#9 1
y#2#9 0
y#3#9 1
x$AAPL#1#_1#9@13 0
x$AAPL#2#_1#9@27 0
x$AAPL#3#_1#9@3b 0
x$NVDA#1#_1#9@4f 0
x$NVDA#2#_1#9@63 0
x$NVDA#3#_1#9@77 0
x$MSFT#1#_1#9@8b 0
x$MSFT#2#_1#9@9f 0
x$MSFT#3#_1#9@b3 0
x$GOOG#1#_1#9@c7 0
x$GOOG#2#_1#9@db 0
x$GOOG#3#_1#9@ef 0
x$GOOGL#1#_1@103 0
x$GOOGL#2#_1@117 0
x$GOOGL#3#_1@12b 0
x$AMZN#1#_1#@13f 0
x$AMZN#2#_1#@153 0
x$AMZN#3#_1#@167 0
x$META#1#_1#@17b 0
x$META#2#_1#@18f 0
x$META#3#_1#@1a3 0
x$TSLA#1#_1#@1b7 0
x$TSLA#2#_1#@1cb 0
x$TSLA#3#_1#@1df 0
x$AVGO#1#_1#@1f3 0
x$AVGO#2#_1#@207 0
x$AVGO#3#_1#@21b 0
x$WMT#1#_1#9@22f 0
x$WMT#2#_1#9@243 0
x$WMT#3#_1#9@257 0
x$AAPL#1#1#1 0
x$AAPL#1#1#0 0
x$AAPL#2#1#1 0
x$AAPL#2#1#0 0
x$AAPL#3#1#1 0
x$AAPL#3#1#0 0
x$NVDA#1#1#1 0
x$NVDA#1#1#0 0
x$NVDA#2#1#1 0
x$NVDA#2#1#0 0
x$NVDA#3#1#1 0
x$NVDA#3#1#0 0
x$MSFT#1#1#1 0
x$MSFT#1#1#0 0
x$MSFT#2#1#1 0
x$MSFT#2#1#0 0
x$MSFT#3#1#1 0
x$MSFT#3#1#0 0
x$GOOG#1#1#1 0
x$GOOG#1#1#0 1
x$GOOG#2#1#1 0
x$GOOG#2#1#0 0
x$GOOG#3#1#1 0
x$GOOG#3#1#0 0
x$GOOGL#1#1#1 0
x$GOOGL#1#1#0 1
x$GOOGL#2#1#1 0
x$GOOGL#2#1#0 1
x$GOOGL#3#1#1 0
x$GOOGL#3#1#0 1
x$AMZN#1#1#1 0
x$AMZN#1#1#0 0
x$AMZN#2#1#1 0
x$AMZN#2#1#0 0
x$AMZN#3#1#1 0
x$AMZN#3#1#0 0
x$META#1#1#1 1
x$META#1#1#0 0
x$META#2#1#1 0
x$META#2#1#0 0
x$META#3#1#1 0
x$META#3#1#0 0
x$TSLA#1#1#1 0
x$TSLA#1#1#0 0
x$TSLA#2#1#1 0
x$TSLA#2#1#0 0
x$TSLA#3#1#1 0
x$TSLA#3#1#0 0
x$AVGO#1#1#1 0
x$AVGO#1#1#0 0
x$AVGO#2#1#1 0
x$AVGO#2#1#0 0
x$AVGO#3#1#1 0
x$AVGO#3#1#0 0
x$WMT#1#1#1 0
x$WMT#1#1#0 0
x$WMT#2#1#1 0
x$WMT#2#1#0 0
x$WMT#3#1#1 0
x$WMT#3#1#0 0
x$AAPL#1#1#2 0
x$AAPL#2#1#2 0
x$AAPL#3#1#2 0
x$NVDA#1#1#2 0
x$NVDA#2#1#2 0
x$NVDA#3#1#2 0
x$MSFT#1#1#2 0
x$MSFT#2#1#2 0
x$MSFT#3#1#2 0
x$GOOG#1#1#2 0
x$GOOG#2#1#2 0
x$GOOG#3#1#2 0
x$GOOGL#1#1#2 0
x$GOOGL#2#1#2 0
x$GOOGL#3#1#2 0
x$AMZN#1#1#2 0
x$AMZN#2#1#2 0
x$AMZN#3#1#2 0
x$META#1#1#2 1
x$META#2#1#2 1
x$META#3#1#2 1
x$TSLA#1#1#2 0
x$TSLA#2#1#2 0
x$TSLA#3#1#2 0
x$AVGO#1#1#2 1
x$AVGO#2#1#2 0
x$AVGO#3#1#2 0
x$WMT#1#1#2 0
x$WMT#2#1#2 0
x$WMT#3#1#2 0
x$AAPL#1#1#3 0
x$AAPL#2#1#3 0
x$AAPL#3#1#3 0
x$NVDA#1#1#3 0
x$NVDA#2#1#3 0
x$NVDA#3#1#3 0
x$MSFT#1#1#3 0
x$MSFT#2#1#3 0
x$MSFT#3#1#3 0
x$GOOG#1#1#3 0
x$GOOG#2#1#3 0
x$GOOG#3#1#3 0
x$GOOGL#1#1#3 0
x$GOOGL#2#1#3 0
x$GOOGL#3#1#3 0
x$AMZN#1#1#3 0
x$AMZN#2#1#3 0
x$AMZN#3#1#3 0
x$META#1#1#3 0
x$META#2#1#3 0
x$META#3#1#3 0
x$TSLA#1#1#3 0
x$TSLA#2#1#3 0
x$TSLA#3#1#3 0
x$AVGO#1#1#3 0
x$AVGO#2#1#3 0
x$AVGO#3#1#3 0
x$WMT#1#1#3 0
x$WMT#2#1#3 0
x$WMT#3#1#3 0
x$AAPL#1#1#4 0
x$AAPL#2#1#4 0
x$AAPL#3#1#4 0
x$NVDA#1#1#4 0
x$NVDA#2#1#4 0
x$NVDA#3#1#4 0
x$MSFT#1#1#4 0
x$MSFT#2#1#4 0
x$MSFT#3#1#4 0
x$GOOG#1#1#4 0
x$GOOG#2#1#4 0
x$GOOG#3#1#4 0
x$GOOGL#1#1#4 0
x$GOOGL#2#1#4 0
x$GOOGL#3#1#4 0
x$AMZN#1#1#4 0
x$AMZN#2#1#4 0
x$AMZN#3#1#4 0
x$META#1#1#4 1
x$META#2#1#4 0
x$META#3#1#4 0
x$TSLA#1#1#4 0
x$TSLA#2#1#4 0
x$TSLA#3#1#4 0
x$AVGO#1#1#4 0
x$AVGO#2#1#4 0
x$AVGO#3#1#4 0
x$WMT#1#1#4 0
x$WMT#2#1#4 0
x$WMT#3#1#4 0
x$AAPL#1#1#5 0
x$AAPL#2#1#5 0
x$AAPL#3#1#5 0
x$NVDA#1#1#5 0
x$NVDA#2#1#5 0
x$NVDA#3#1#5 0
x$MSFT#1#1#5 0
x$MSFT#2#1#5 0
x$MSFT#3#1#5 0
x$GOOG#1#1#5 0
x$GOOG#2#1#5 0
x$GOOG#3#1#5 0
x$GOOGL#1#1#5 0
x$GOOGL#2#1#5 0
x$GOOGL#3#1#5 0
x$AMZN#1#1#5 0
x$AMZN#2#1#5 0
x$AMZN#3#1#5 0
x$META#1#1#5 0
x$META#2#1#5 0
x$META#3#1#5 0
x$TSLA#1#1#5 1
x$TSLA#2#1#5 1
x$TSLA#3#1#5 1
x$AVGO#1#1#5 0
x$AVGO#2#1#5 0
x$AVGO#3#1#5 0
x$WMT#1#1#5 0
x$WMT#2#1#5 0
x$WMT#3#1#5 0
x$AAPL#1#1#6 0
x$AAPL#2#1#6 0
x$AAPL#3#1#6 0
x$NVDA#1#1#6 0
x$NVDA#2#1#6 0
x$NVDA#3#1#6 0
x$MSFT#1#1#6 0
x$MSFT#2#1#6 0
x$MSFT#3#1#6 0
x$GOOG#1#1#6 0
x$GOOG#2#1#6 0
x$GOOG#3#1#6 0
x$GOOGL#1#1#6 0
x$GOOGL#2#1#6 0
x$GOOGL#3#1#6 0
x$AMZN#1#1#6 0
x$AMZN#2#1#6 0
x$AMZN#3#1#6 0
x$META#1#1#6 0
x$META#2#1#6 0
x$META#3#1#6 0
x$TSLA#1#1#6 1
x$TSLA#2#1#6 1
x$TSLA#3#1#6 1
x$AVGO#1#1#6 0
x$AVGO#2#1#6 0
x$AVGO#3#1#6 0
x$WMT#1#1#6 0
x$WMT#2#1#6 0
x$WMT#3#1#6 0
x$AAPL#1#1#7 0
x$AAPL#2#1#7 0
x$AAPL#3#1#7 0
x$NVDA#1#1#7 0
x$NVDA#2#1#7 0
x$NVDA#3#1#7 1
x$MSFT#1#1#7 0
x$MSFT#2#1#7 0
x$MSFT#3#1#7 0
x$GOOG#1#1#7 0
x$GOOG#2#1#7 0
x$GOOG#3#1#7 0
x$GOOGL#1#1#7 0
x$GOOGL#2#1#7 0
x$GOOGL#3#1#7 0
x$AMZN#1#1#7 0
x$AMZN#2#1#7 0
x$AMZN#3#1#7 0
x$META#1#1#7 0
x$META#2#1#7 0
x$META#3#1#7 0
x$TSLA#1#1#7 0
x$TSLA#2#1#7 0
x$TSLA#3#1#7 0
x$AVGO#1#1#7 0
x$AVGO#2#1#7 0
x$AVGO#3#1#7 0
x$WMT#1#1#7 0
x$WMT#2#1#7 0
x$WMT#3#1#7 0
x$AAPL#1#1#8 0
x$AAPL#2#1#8 0
x$AAPL#3#1#8 1
x$NVDA#1#1#8 0
x$NVDA#2#1#8 0
x$NVDA#3#1#8 0
x$MSFT#1#1#8 0
x$MSFT#2#1#8 0
x$MSFT#3#1#8 0
x$GOOG#1#1#8 0
x$GOOG#2#1#8 0
x$GOOG#3#1#8 0
x$GOOGL#1#1#8 0
x$GOOGL#2#1#8 0
x$GOOGL#3#1#8 0
x$AMZN#1#1#8 0
x$AMZN#2#1#8 0
x$AMZN#3#1#8 0
x$META#1#1#8 0
x$META#2#1#8 0
x$META#3#1#8 0
x$TSLA#1#1#8 0
x$TSLA#2#1#8 0
x$TSLA#3#1#8 0
x$AVGO#1#1#8 1
x$AVGO#2#1#8 1
x$AVGO#3#1#8 1
x$WMT#1#1#8 0
x$WMT#2#1#8 0
x$WMT#3#1#8 0
x$AAPL#1#1#9 0
x$AAPL#2#1#9 0
x$AAPL#3#1#9 0
x$NVDA#1#1#9 0
x$NVDA#2#1#9 0
x$NVDA#3#1#9 0
x$MSFT#1#1#9 0
x$MSFT#2#1#9 0
x$MSFT#3#1#9 0
x$GOOG#1#1#9 0
x$GOOG#2#1#9 0
x$GOOG#3#1#9 0
x$GOOGL#1#1#9 0
x$GOOGL#2#1#9 0
x$GOOGL#3#1#9 0
x$AMZN#1#1#9 0
x$AMZN#2#1#9 0
x$AMZN#3#1#9 0
x$META#1#1#9 0
x$META#2#1#9 0
x$META#3#1#9 0
x$TSLA#1#1#9 0
x$TSLA#2#1#9 0
x$TSLA#3#1#9 0
x$AVGO#1#1#9 0
x$AVGO#2#1#9 0
x$AVGO#3#1#9 0
x$WMT#1#1#9 0
x$WMT#2#1#9 0
x$WMT#3#1#9 0
s2#6#0 0
s2#5#0 0
s2#4#0 0
s2#3#0 0
s2#2#0 0
s2#1#0 0
s2#0#0 0
s2#6#1 0
s2#5#1 0
s2#4#1 0
s2#3#1 0
s2#2#1 0
s2#1#1 0
s2#0#1 0
s2#6#2 0
s2#5#2 0
s2#4#2 0
s2#3#2 0
s2#2#2 0
s2#1#2 0
s2#0#2 0
s2#6#3 0
s2#5#3 0
s2#4#3 0
s2#3#3 0
s2#2#3 0
s2#1#3 0
s2#0#3 0
s2#6#4 0
s2#5#4 0
s2#4#4 0
s2#3#4 0
s2#2#4 0
s2#1#4 0
s2#0#4 0
s2#6#5 0
s2#5#5 0
s2#4#5 0
s2#3#5 0
s2#2#5 0
s2#1#5 0
s2#0#5 0
s2#6#6 0
s2#5#6 0
s2#4#6 0
s2#3#6 0
s2#2#6 0
s2#1#6 0
s2#0#6 0
s2#6#7 0
s2#5#7 0
s2#4#7 0
s2#3#7 0
s2#2#7 0
s2#1#7 0
s2#0#7 0
s2#6#8 0
s2#5#8 0
s2#4#8 0
s2#3#8 0
s2#2#8 0
s2#1#8 0
s2#0#8 0
s2#6#9 0
s2#5#9 0
s2#4#9 0
s2#3#9 0
s2#2#9 1
s2#1#9 0
s2#0#9 0
